sat
(:max-memory         18.43
 :memory             18.33
 :nlsat-arith-var    2
 :nlsat-atoms        10
 :nlsat-bool-var     1
 :nlsat-clauses      8
 :nlsat-conflicts    3
 :nlsat-decisions    1
 :nlsat-propagations 14
 :nlsat-stages       5
 :num-allocs         50596
 :rlimit-count       725
 :time               0.00
 :total-time         0.01)
